38 38
16 3
37 2
25 11
8 16
23 14
33 3
15 12
3 8
6 7
4 14
34 16
12 9
14 12
20 15
28 15
30 5
24 19
5 10
26 17
13 17
7 13
11 18
32 4
18 6
21 10
22 13
31 1
9 18
38 9
10 19
36 11
35 6
17 5
2 4
27 7
19 8
1 2
29 1
